TCS_Benchmarks/redos_fix/snort3_output_distinct_3720_3719_0_0.txt
([^\n]*)([a-f0-9]+)
([^\n]*)(fla\.php\?wq=)([a-f0-9]+)